c Sudoku solution
p cnf 729 0
231 0
262 0
293 0
313 0
325 0
378 0
396 0
463 0
497 0
541 0
568 0
654 0
675 0
683 0
699 0
488 0
471 0
729 0
738 0
782 0
332 0
835 0
843 0
773 0
153 0
912 0
852 0
898 0
946 0
958 0
716 0
969 0
984 0
977 0
995 0
791 0
861 0
921 0
933 0
611 0
628 0
642 0
422 0
523 0
351 0
181 0
586 0
876 0
889 0
285 0
387 0
364 0
349 0
744 0
445 0
515 0
165 0
256 0
126 0
755 0
767 0
459 0
666 0
557 0
436 0
637 0
414 0
539 0
817 0
824 0
227 0
134 0
192 0
179 0
274 0
147 0
248 0
118 0
219 0
572 0
594 0
